c nIsolatedPIs 105
c maxPI 42
p cnf 506 1393
c gate 43 -30 -33 0
-30 -43 0
-33 -43 0
30 33 43 0
c gate 44 -38 43 0
-38 -44 0
43 -44 0
38 -43 44 0
c gate 45 -21 44 0
-21 -45 0
44 -45 0
21 -44 45 0
c gate 46 22 -45 0
22 -46 0
-45 -46 0
-22 45 46 0
c gate 47 30 33 0
30 -47 0
33 -47 0
-30 -33 47 0
c gate 48 -21 -47 0
-21 -48 0
-47 -48 0
21 47 48 0
c gate 49 -44 -48 0
-44 -49 0
-48 -49 0
44 48 49 0
c gate 50 -10 -25 0
-10 -50 0
-25 -50 0
10 25 50 0
c gate 51 38 -43 0
38 -51 0
-43 -51 0
-38 43 51 0
c gate 52 50 -51 0
50 -52 0
-51 -52 0
-50 51 52 0
c gate 53 -49 52 0
-49 -53 0
52 -53 0
49 -52 53 0
c gate 54 -46 53 0
-46 -54 0
53 -54 0
46 -53 54 0
c gate 55 -6 38 0
-6 -55 0
38 -55 0
6 -38 55 0
c gate 56 -54 55 0
-54 -56 0
55 -56 0
54 -55 56 0
c gate 57 -21 -22 0
-21 -57 0
-22 -57 0
21 22 57 0
c gate 58 43 57 0
43 -58 0
57 -58 0
-43 -57 58 0
c gate 59 50 58 0
50 -59 0
58 -59 0
-50 -58 59 0
c gate 60 -3 -40 0
-3 -60 0
-40 -60 0
3 40 60 0
c gate 61 -42 60 0
-42 -61 0
60 -61 0
42 -60 61 0
c gate 62 -5 59 0
-5 -62 0
59 -62 0
5 -59 62 0
c gate 63 3 -6 0
3 -63 0
-6 -63 0
-3 6 63 0
c gate 64 62 -63 0
62 -64 0
-63 -64 0
-62 63 64 0
c gate 65 -62 63 0
-62 -65 0
63 -65 0
62 -63 65 0
c gate 66 -64 -65 0
-64 -66 0
-65 -66 0
64 65 66 0
c gate 67 -61 -66 0
-61 -67 0
-66 -67 0
61 66 67 0
c gate 68 -38 -67 0
-38 -68 0
-67 -68 0
38 67 68 0
c gate 69 59 68 0
59 -69 0
68 -69 0
-59 -68 69 0
c gate 70 54 -67 0
54 -70 0
-67 -70 0
-54 67 70 0
c gate 71 38 -70 0
38 -71 0
-70 -71 0
-38 70 71 0
c gate 72 6 -71 0
6 -72 0
-71 -72 0
-6 71 72 0
c gate 73 -69 72 0
-69 -73 0
72 -73 0
69 -72 73 0
c gate 74 -56 -73 0
-56 -74 0
-73 -74 0
56 73 74 0
c gate 75 -3 -74 0
-3 -75 0
-74 -75 0
3 74 75 0
c gate 76 6 -38 0
6 -76 0
-38 -76 0
-6 38 76 0
c gate 77 -3 -54 0
-3 -77 0
-54 -77 0
3 54 77 0
c gate 78 3 -66 0
3 -78 0
-66 -78 0
-3 66 78 0
c gate 79 -61 62 0
-61 -79 0
62 -79 0
61 -62 79 0
c gate 80 -3 -79 0
-3 -80 0
-79 -80 0
3 79 80 0
c gate 81 59 -80 0
59 -81 0
-80 -81 0
-59 80 81 0
c gate 82 -78 81 0
-78 -82 0
81 -82 0
78 -81 82 0
c gate 83 -77 -82 0
-77 -83 0
-82 -83 0
77 82 83 0
c gate 84 -55 -83 0
-55 -84 0
-83 -84 0
55 83 84 0
c gate 85 -76 84 0
-76 -85 0
84 -85 0
76 -84 85 0
c gate 86 -75 -85 0
-75 -86 0
-85 -86 0
75 85 86 0
c gate 87 -6 -68 0
-6 -87 0
-68 -87 0
6 68 87 0
c gate 88 58 -67 0
58 -88 0
-67 -88 0
-58 67 88 0
c gate 89 -87 -88 0
-87 -89 0
-88 -89 0
87 88 89 0
c gate 90 54 -89 0
54 -90 0
-89 -90 0
-54 89 90 0
c gate 91 3 -90 0
3 -91 0
-90 -91 0
-3 90 91 0
c gate 92 86 -91 0
86 -92 0
-91 -92 0
-86 91 92 0
c gate 93 -24 42 0
-24 -93 0
42 -93 0
24 -42 93 0
c gate 94 24 -42 0
24 -94 0
-42 -94 0
-24 42 94 0
c gate 95 -93 -94 0
-93 -95 0
-94 -95 0
93 94 95 0
c gate 96 59 -95 0
59 -96 0
-95 -96 0
-59 95 96 0
c gate 97 24 -96 0
24 -97 0
-96 -97 0
-24 96 97 0
c gate 98 -41 79 0
-41 -98 0
79 -98 0
41 -79 98 0
c gate 99 -38 -98 0
-38 -99 0
-98 -99 0
38 98 99 0
c gate 100 -55 -99 0
-55 -100 0
-99 -100 0
55 99 100 0
c gate 101 24 92 0
24 -101 0
92 -101 0
-24 -92 101 0
c gate 102 -100 101 0
-100 -102 0
101 -102 0
100 -101 102 0
c gate 103 3 102 0
3 -103 0
102 -103 0
-3 -102 103 0
c gate 104 -3 100 0
-3 -104 0
100 -104 0
3 -100 104 0
c gate 105 -24 104 0
-24 -105 0
104 -105 0
24 -104 105 0
c gate 106 -86 105 0
-86 -106 0
105 -106 0
86 -105 106 0
c gate 107 -103 -106 0
-103 -107 0
-106 -107 0
103 106 107 0
c gate 108 21 -29 0
21 -108 0
-29 -108 0
-21 29 108 0
c gate 109 -28 108 0
-28 -109 0
108 -109 0
28 -108 109 0
c gate 110 -22 -109 0
-22 -110 0
-109 -110 0
22 109 110 0
c gate 111 6 -110 0
6 -111 0
-110 -111 0
-6 110 111 0
c gate 112 28 -108 0
28 -112 0
-108 -112 0
-28 108 112 0
c gate 113 -21 29 0
-21 -113 0
29 -113 0
21 -29 113 0
c gate 114 22 -26 0
22 -114 0
-26 -114 0
-22 26 114 0
c gate 115 -113 114 0
-113 -115 0
114 -115 0
113 -114 115 0
c gate 116 -112 115 0
-112 -116 0
115 -116 0
112 -115 116 0
c gate 117 26 109 0
26 -117 0
109 -117 0
-26 -109 117 0
c gate 118 -116 -117 0
-116 -118 0
-117 -118 0
116 117 118 0
c gate 119 111 118 0
111 -119 0
118 -119 0
-111 -118 119 0
c gate 120 -100 -119 0
-100 -120 0
-119 -120 0
100 119 120 0
c gate 121 23 92 0
23 -121 0
92 -121 0
-23 -92 121 0
c gate 122 120 -121 0
120 -122 0
-121 -122 0
-120 121 122 0
c gate 123 -38 -40 0
-38 -123 0
-40 -123 0
38 40 123 0
c gate 124 23 119 0
23 -124 0
119 -124 0
-23 -119 124 0
c gate 125 -123 -124 0
-123 -125 0
-124 -125 0
123 124 125 0
c gate 126 100 -125 0
100 -126 0
-125 -126 0
-100 125 126 0
c gate 127 38 119 0
38 -127 0
119 -127 0
-38 -119 127 0
c gate 128 -126 -127 0
-126 -128 0
-127 -128 0
126 127 128 0
c gate 129 -92 128 0
-92 -129 0
128 -129 0
92 -128 129 0
c gate 130 -120 -129 0
-120 -130 0
-129 -130 0
120 129 130 0
c gate 131 -122 -130 0
-122 -131 0
-130 -131 0
122 130 131 0
c gate 132 33 -131 0
33 -132 0
-131 -132 0
-33 131 132 0
c gate 133 -107 132 0
-107 -133 0
132 -133 0
107 -132 133 0
c gate 134 3 33 0
3 -134 0
33 -134 0
-3 -33 134 0
c gate 135 -33 -104 0
-33 -135 0
-104 -135 0
33 104 135 0
c gate 136 -92 135 0
-92 -136 0
135 -136 0
92 -135 136 0
c gate 137 -102 -136 0
-102 -137 0
-136 -137 0
102 136 137 0
c gate 138 -134 -137 0
-134 -138 0
-137 -138 0
134 137 138 0
c gate 139 -33 104 0
-33 -139 0
104 -139 0
33 -104 139 0
c gate 140 129 139 0
129 -140 0
139 -140 0
-129 -139 140 0
c gate 141 -138 -140 0
-138 -141 0
-140 -141 0
138 140 141 0
c gate 142 -133 141 0
-133 -142 0
141 -142 0
133 -141 142 0
c gate 143 -97 142 0
-97 -143 0
142 -143 0
97 -142 143 0
c gate 144 92 -143 0
92 -144 0
-143 -144 0
-92 143 144 0
c gate 145 42 -92 0
42 -145 0
-92 -145 0
-42 92 145 0
c gate 146 142 145 0
142 -146 0
145 -146 0
-142 -145 146 0
c gate 147 -144 -146 0
-144 -147 0
-146 -147 0
144 146 147 0
c gate 148 54 -147 0
54 -148 0
-147 -148 0
-54 147 148 0
c gate 149 -42 142 0
-42 -149 0
142 -149 0
42 -142 149 0
c gate 150 -93 -149 0
-93 -150 0
-149 -150 0
93 149 150 0
c gate 151 92 -96 0
92 -151 0
-96 -151 0
-92 96 151 0
c gate 152 -150 151 0
-150 -152 0
151 -152 0
150 -151 152 0
c gate 153 -92 96 0
-92 -153 0
96 -153 0
92 -96 153 0
c gate 154 -142 153 0
-142 -154 0
153 -154 0
142 -153 154 0
c gate 155 -152 -154 0
-152 -155 0
-154 -155 0
152 154 155 0
c gate 156 -54 -155 0
-54 -156 0
-155 -156 0
54 155 156 0
c gate 157 -148 -156 0
-148 -157 0
-156 -157 0
148 156 157 0
c gate 158 21 157 0
21 -158 0
157 -158 0
-21 -157 158 0
c gate 159 59 -92 0
59 -159 0
-92 -159 0
-59 92 159 0
c gate 160 158 159 0
158 -160 0
159 -160 0
-158 -159 160 0
c gate 161 -21 -157 0
-21 -161 0
-157 -161 0
21 157 161 0
c gate 162 -59 -161 0
-59 -162 0
-161 -162 0
59 161 162 0
c gate 163 92 -158 0
92 -163 0
-158 -163 0
-92 158 163 0
c gate 164 -162 163 0
-162 -164 0
163 -164 0
162 -163 164 0
c gate 165 -160 -164 0
-160 -165 0
-164 -165 0
160 164 165 0
c gate 166 22 -165 0
22 -166 0
-165 -166 0
-22 165 166 0
c gate 167 -59 92 0
-59 -167 0
92 -167 0
59 -92 167 0
c gate 168 57 -159 0
57 -168 0
-159 -168 0
-57 159 168 0
c gate 169 -167 168 0
-167 -169 0
168 -169 0
167 -168 169 0
c gate 170 -157 169 0
-157 -170 0
169 -170 0
157 -169 170 0
c gate 171 -166 -170 0
-166 -171 0
-170 -171 0
166 170 171 0
c gate 172 33 -171 0
33 -172 0
-171 -172 0
-33 171 172 0
c gate 173 -157 159 0
-157 -173 0
159 -173 0
157 -159 173 0
c gate 174 57 167 0
57 -174 0
167 -174 0
-57 -167 174 0
c gate 175 -173 -174 0
-173 -175 0
-174 -175 0
173 174 175 0
c gate 176 -33 -175 0
-33 -176 0
-175 -176 0
33 175 176 0
c gate 177 6 -120 0
6 -177 0
-120 -177 0
-6 120 177 0
c gate 178 21 -177 0
21 -178 0
-177 -178 0
-21 177 178 0
c gate 179 -3 -119 0
-3 -179 0
-119 -179 0
3 119 179 0
c gate 180 21 119 0
21 -180 0
119 -180 0
-21 -119 180 0
c gate 181 -179 -180 0
-179 -181 0
-180 -181 0
179 180 181 0
c gate 182 100 181 0
100 -182 0
181 -182 0
-100 -181 182 0
c gate 183 -178 -182 0
-178 -183 0
-182 -183 0
178 182 183 0
c gate 184 -6 104 0
-6 -184 0
104 -184 0
6 -104 184 0
c gate 185 -22 -119 0
-22 -185 0
-119 -185 0
22 119 185 0
c gate 186 20 119 0
20 -186 0
119 -186 0
-20 -119 186 0
c gate 187 -185 -186 0
-185 -187 0
-186 -187 0
185 186 187 0
c gate 188 -92 187 0
-92 -188 0
187 -188 0
92 -187 188 0
c gate 189 -184 -188 0
-184 -189 0
-188 -189 0
184 188 189 0
c gate 190 -183 -189 0
-183 -190 0
-189 -190 0
183 189 190 0
c gate 191 -101 -146 0
-101 -191 0
-146 -191 0
101 146 191 0
c gate 192 157 -191 0
157 -192 0
-191 -192 0
-157 191 192 0
c gate 193 -190 -192 0
-190 -193 0
-192 -193 0
190 192 193 0
c gate 194 54 -193 0
54 -194 0
-193 -194 0
-54 193 194 0
c gate 195 54 -191 0
54 -195 0
-191 -195 0
-54 191 195 0
c gate 196 -157 -195 0
-157 -196 0
-195 -196 0
157 195 196 0
c gate 197 -122 128 0
-122 -197 0
128 -197 0
122 -128 197 0
c gate 198 6 22 0
6 -198 0
22 -198 0
-6 -22 198 0
c gate 199 -104 -198 0
-104 -199 0
-198 -199 0
104 198 199 0
c gate 200 54 -199 0
54 -200 0
-199 -200 0
-54 199 200 0
c gate 201 130 200 0
130 -201 0
200 -201 0
-130 -200 201 0
c gate 202 38 67 0
38 -202 0
67 -202 0
-38 -67 202 0
c gate 203 84 202 0
84 -203 0
202 -203 0
-84 -202 203 0
c gate 204 -131 -203 0
-131 -204 0
-203 -204 0
131 203 204 0
c gate 205 3 38 0
3 -205 0
38 -205 0
-3 -38 205 0
c gate 206 54 -205 0
54 -206 0
-205 -206 0
-54 205 206 0
c gate 207 6 -206 0
6 -207 0
-206 -207 0
-6 206 207 0
c gate 208 3 -38 0
3 -208 0
-38 -208 0
-3 38 208 0
c gate 209 62 208 0
62 -209 0
208 -209 0
-62 -208 209 0
c gate 210 -77 -209 0
-77 -210 0
-209 -210 0
77 209 210 0
c gate 211 -207 210 0
-207 -211 0
210 -211 0
207 -210 211 0
c gate 212 204 211 0
204 -212 0
211 -212 0
-204 -211 212 0
c gate 213 -201 -212 0
-201 -213 0
-212 -213 0
201 212 213 0
c gate 214 197 -213 0
197 -214 0
-213 -214 0
-197 213 214 0
c gate 215 197 211 0
197 -215 0
211 -215 0
-197 -211 215 0
c gate 216 131 -211 0
131 -216 0
-211 -216 0
-131 211 216 0
c gate 217 -204 -216 0
-204 -217 0
-216 -217 0
204 216 217 0
c gate 218 -215 217 0
-215 -218 0
217 -218 0
215 -217 218 0
c gate 219 -4 -39 0
-4 -219 0
-39 -219 0
4 39 219 0
c gate 220 4 39 0
4 -220 0
39 -220 0
-4 -39 220 0
c gate 221 -219 -220 0
-219 -221 0
-220 -221 0
219 220 221 0
c gate 222 37 -221 0
37 -222 0
-221 -222 0
-37 221 222 0
c gate 223 -12 -37 0
-12 -223 0
-37 -223 0
12 37 223 0
c gate 224 12 39 0
12 -224 0
39 -224 0
-12 -39 224 0
c gate 225 -4 -224 0
-4 -225 0
-224 -225 0
4 224 225 0
c gate 226 -223 225 0
-223 -226 0
225 -226 0
223 -225 226 0
c gate 227 -222 226 0
-222 -227 0
226 -227 0
222 -226 227 0
c gate 228 -37 -219 0
-37 -228 0
-219 -228 0
37 219 228 0
c gate 229 -222 -228 0
-222 -229 0
-228 -229 0
222 228 229 0
c gate 230 -227 229 0
-227 -230 0
229 -230 0
227 -229 230 0
c gate 231 -11 -18 0
-11 -231 0
-18 -231 0
11 18 231 0
c gate 232 11 18 0
11 -232 0
18 -232 0
-11 -18 232 0
c gate 233 -231 -232 0
-231 -233 0
-232 -233 0
231 232 233 0
c gate 234 -230 233 0
-230 -234 0
233 -234 0
230 -233 234 0
c gate 235 18 -39 0
18 -235 0
-39 -235 0
-18 39 235 0
c gate 236 4 -11 0
4 -236 0
-11 -236 0
-4 11 236 0
c gate 237 235 236 0
235 -237 0
236 -237 0
-235 -236 237 0
c gate 238 4 -232 0
4 -238 0
-232 -238 0
-4 232 238 0
c gate 239 -4 -231 0
-4 -239 0
-231 -239 0
4 231 239 0
c gate 240 39 -239 0
39 -240 0
-239 -240 0
-39 239 240 0
c gate 241 -238 240 0
-238 -241 0
240 -241 0
238 -240 241 0
c gate 242 -237 -241 0
-237 -242 0
-241 -242 0
237 241 242 0
c gate 243 37 -242 0
37 -243 0
-242 -243 0
-37 242 243 0
c gate 244 37 -227 0
37 -244 0
-227 -244 0
-37 227 244 0
c gate 245 232 -244 0
232 -245 0
-244 -245 0
-232 244 245 0
c gate 246 -243 -245 0
-243 -246 0
-245 -246 0
243 245 246 0
c gate 247 -234 246 0
-234 -247 0
246 -247 0
234 -246 247 0
c gate 248 -39 229 0
-39 -248 0
229 -248 0
39 -229 248 0
c gate 249 -220 -248 0
-220 -249 0
-248 -249 0
220 248 249 0
c gate 250 37 39 0
37 -250 0
39 -250 0
-37 -39 250 0
c gate 251 -18 250 0
-18 -251 0
250 -251 0
18 -250 251 0
c gate 252 18 -250 0
18 -252 0
-250 -252 0
-18 250 252 0
c gate 253 -11 12 0
-11 -253 0
12 -253 0
11 -12 253 0
c gate 254 -252 253 0
-252 -254 0
253 -254 0
252 -253 254 0
c gate 255 -251 254 0
-251 -255 0
254 -255 0
251 -254 255 0
c gate 256 249 255 0
249 -256 0
255 -256 0
-249 -255 256 0
c gate 257 4 231 0
4 -257 0
231 -257 0
-4 -231 257 0
c gate 258 -249 257 0
-249 -258 0
257 -258 0
249 -257 258 0
c gate 259 -256 -258 0
-256 -259 0
-258 -259 0
256 258 259 0
c gate 260 247 259 0
247 -260 0
259 -260 0
-247 -259 260 0
c gate 261 223 231 0
223 -261 0
231 -261 0
-223 -231 261 0
c gate 262 11 37 0
11 -262 0
37 -262 0
-11 -37 262 0
c gate 263 224 262 0
224 -263 0
262 -263 0
-224 -262 263 0
c gate 264 -261 -263 0
-261 -264 0
-263 -264 0
261 263 264 0
c gate 265 -4 -264 0
-4 -265 0
-264 -265 0
4 264 265 0
c gate 266 -260 -265 0
-260 -266 0
-265 -266 0
260 265 266 0
c gate 267 -2 -34 0
-2 -267 0
-34 -267 0
2 34 267 0
c gate 268 -9 267 0
-9 -268 0
267 -268 0
9 -267 268 0
c gate 269 -11 268 0
-11 -269 0
268 -269 0
11 -268 269 0
c gate 270 36 -269 0
36 -270 0
-269 -270 0
-36 269 270 0
c gate 271 9 -267 0
9 -271 0
-267 -271 0
-9 267 271 0
c gate 272 2 34 0
2 -272 0
34 -272 0
-2 -34 272 0
c gate 273 -11 -272 0
-11 -273 0
-272 -273 0
11 272 273 0
c gate 274 -271 273 0
-271 -274 0
273 -274 0
271 -273 274 0
c gate 275 -268 -274 0
-268 -275 0
-274 -275 0
268 274 275 0
c gate 276 -37 -275 0
-37 -276 0
-275 -276 0
37 275 276 0
c gate 277 -270 276 0
-270 -277 0
276 -277 0
270 -276 277 0
c gate 278 -36 268 0
-36 -278 0
268 -278 0
36 -268 278 0
c gate 279 -11 278 0
-11 -279 0
278 -279 0
11 -278 279 0
c gate 280 -2 -36 0
-2 -280 0
-36 -280 0
2 36 280 0
c gate 281 34 -280 0
34 -281 0
-280 -281 0
-34 280 281 0
c gate 282 9 -281 0
9 -282 0
-281 -282 0
-9 281 282 0
c gate 283 -9 -280 0
-9 -283 0
-280 -283 0
9 280 283 0
c gate 284 2 36 0
2 -284 0
36 -284 0
-2 -36 284 0
c gate 285 -283 -284 0
-283 -285 0
-284 -285 0
283 284 285 0
c gate 286 -282 285 0
-282 -286 0
285 -286 0
282 -285 286 0
c gate 287 262 -286 0
262 -287 0
-286 -287 0
-262 286 287 0
c gate 288 -279 -287 0
-279 -288 0
-287 -288 0
279 287 288 0
c gate 289 -277 288 0
-277 -289 0
288 -289 0
277 -288 289 0
c gate 290 -14 31 0
-14 -290 0
31 -290 0
14 -31 290 0
c gate 291 50 290 0
50 -291 0
290 -291 0
-50 -290 291 0
c gate 292 -15 -17 0
-15 -292 0
-17 -292 0
15 17 292 0
c gate 293 291 292 0
291 -293 0
292 -293 0
-291 -292 293 0
c gate 294 -8 -13 0
-8 -294 0
-13 -294 0
8 13 294 0
c gate 295 -27 294 0
-27 -295 0
294 -295 0
27 -294 295 0
c gate 296 -19 295 0
-19 -296 0
295 -296 0
19 -295 296 0
c gate 297 293 296 0
293 -297 0
296 -297 0
-293 -296 297 0
c gate 298 -289 297 0
-289 -298 0
297 -298 0
289 -297 298 0
c gate 299 39 -265 0
39 -299 0
-265 -299 0
-39 265 299 0
c gate 300 298 -299 0
298 -300 0
-299 -300 0
-298 299 300 0
c gate 301 -266 300 0
-266 -301 0
300 -301 0
266 -300 301 0
c gate 302 9 19 0
9 -302 0
19 -302 0
-9 -19 302 0
c gate 303 36 302 0
36 -303 0
302 -303 0
-36 -302 303 0
c gate 304 -278 -303 0
-278 -304 0
-303 -304 0
278 303 304 0
c gate 305 -272 -304 0
-272 -305 0
-304 -305 0
272 304 305 0
c gate 306 301 305 0
301 -306 0
305 -306 0
-301 -305 306 0
c gate 307 -2 -8 0
-2 -307 0
-8 -307 0
2 8 307 0
c gate 308 -19 -34 0
-19 -308 0
-34 -308 0
19 34 308 0
c gate 309 307 308 0
307 -309 0
308 -309 0
-307 -308 309 0
c gate 310 -307 -308 0
-307 -310 0
-308 -310 0
307 308 310 0
c gate 311 50 -310 0
50 -311 0
-310 -311 0
-50 310 311 0
c gate 312 -309 311 0
-309 -312 0
311 -312 0
309 -311 312 0
c gate 313 -32 312 0
-32 -313 0
312 -313 0
32 -312 313 0
c gate 314 -306 -313 0
-306 -314 0
-313 -314 0
306 313 314 0
c gate 315 -31 50 0
-31 -315 0
50 -315 0
31 -50 315 0
c gate 316 -15 -19 0
-15 -316 0
-19 -316 0
15 19 316 0
c gate 317 14 -316 0
14 -317 0
-316 -317 0
-14 316 317 0
c gate 318 -13 -34 0
-13 -318 0
-34 -318 0
13 34 318 0
c gate 319 -317 318 0
-317 -319 0
318 -319 0
317 -318 319 0
c gate 320 -14 316 0
-14 -320 0
316 -320 0
14 -316 320 0
c gate 321 13 320 0
13 -321 0
320 -321 0
-13 -320 321 0
c gate 322 -319 -321 0
-319 -322 0
-321 -322 0
319 321 322 0
c gate 323 -8 -322 0
-8 -323 0
-322 -323 0
8 322 323 0
c gate 324 318 320 0
318 -324 0
320 -324 0
-318 -320 324 0
c gate 325 -323 -324 0
-323 -325 0
-324 -325 0
323 324 325 0
c gate 326 -8 324 0
-8 -326 0
324 -326 0
8 -324 326 0
c gate 327 17 -326 0
17 -327 0
-326 -327 0
-17 326 327 0
c gate 328 -9 -27 0
-9 -328 0
-27 -328 0
9 27 328 0
c gate 329 219 328 0
219 -329 0
328 -329 0
-219 -328 329 0
c gate 330 280 329 0
280 -330 0
329 -330 0
-280 -329 330 0
c gate 331 261 330 0
261 -331 0
330 -331 0
-261 -330 331 0
c gate 332 -327 331 0
-327 -332 0
331 -332 0
327 -331 332 0
c gate 333 -325 332 0
-325 -333 0
332 -333 0
325 -332 333 0
c gate 334 1 -312 0
1 -334 0
-312 -334 0
-1 312 334 0
c gate 335 333 334 0
333 -335 0
334 -335 0
-333 -334 335 0
c gate 336 -315 -335 0
-315 -336 0
-335 -336 0
315 335 336 0
c gate 337 -314 336 0
-314 -337 0
336 -337 0
314 -336 337 0
c gate 338 260 298 0
260 -338 0
298 -338 0
-260 -298 338 0
c gate 339 305 338 0
305 -339 0
338 -339 0
-305 -338 339 0
c gate 340 -313 -339 0
-313 -340 0
-339 -340 0
313 339 340 0
c gate 341 -1 312 0
-1 -341 0
312 -341 0
1 -312 341 0
c gate 342 339 341 0
339 -342 0
341 -342 0
-339 -341 342 0
c gate 343 -334 -342 0
-334 -343 0
-342 -343 0
334 342 343 0
c gate 344 333 -343 0
333 -344 0
-343 -344 0
-333 343 344 0
c gate 345 -340 -344 0
-340 -345 0
-344 -345 0
340 344 345 0
c gate 346 -315 -345 0
-315 -346 0
-345 -346 0
315 345 346 0
c gate 347 339 -346 0
339 -347 0
-346 -347 0
-339 346 347 0
c gate 348 -337 -347 0
-337 -348 0
-347 -348 0
337 347 348 0
c gate 349 337 -346 0
337 -349 0
-346 -349 0
-337 346 349 0
c gate 350 -1 315 0
-1 -350 0
315 -350 0
1 -315 350 0
c gate 351 -349 -350 0
-349 -351 0
-350 -351 0
349 350 351 0
c gate 352 -348 351 0
-348 -352 0
351 -352 0
348 -351 352 0
c gate 353 -12 -18 0
-12 -353 0
-18 -353 0
12 18 353 0
c gate 354 219 353 0
219 -354 0
353 -354 0
-219 -353 354 0
c gate 355 338 354 0
338 -355 0
354 -355 0
-338 -354 355 0
c gate 356 -13 27 0
-13 -356 0
27 -356 0
13 -27 356 0
c gate 357 -8 356 0
-8 -357 0
356 -357 0
8 -356 357 0
c gate 358 8 13 0
8 -358 0
13 -358 0
-8 -13 358 0
c gate 359 -36 -358 0
-36 -359 0
-358 -359 0
36 358 359 0
c gate 360 -356 359 0
-356 -360 0
359 -360 0
356 -359 360 0
c gate 361 -357 -360 0
-357 -361 0
-360 -361 0
357 360 361 0
c gate 362 355 361 0
355 -362 0
361 -362 0
-355 -361 362 0
c gate 363 -13 -355 0
-13 -363 0
-355 -363 0
13 355 363 0
c gate 364 315 -363 0
315 -364 0
-363 -364 0
-315 363 364 0
c gate 365 -362 364 0
-362 -365 0
364 -365 0
362 -364 365 0
c gate 366 -315 355 0
-315 -366 0
355 -366 0
315 -355 366 0
c gate 367 36 295 0
36 -367 0
295 -367 0
-36 -295 367 0
c gate 368 366 367 0
366 -368 0
367 -368 0
-366 -367 368 0
c gate 369 -365 -368 0
-365 -369 0
-368 -369 0
365 368 369 0
c gate 370 301 354 0
301 -370 0
354 -370 0
-301 -354 370 0
c gate 371 -13 -370 0
-13 -371 0
-370 -371 0
13 370 371 0
c gate 372 315 -371 0
315 -372 0
-371 -372 0
-315 371 372 0
c gate 373 -359 370 0
-359 -373 0
370 -373 0
359 -370 373 0
c gate 374 -372 -373 0
-372 -374 0
-373 -374 0
372 373 374 0
c gate 375 369 -374 0
369 -375 0
-374 -375 0
-369 374 375 0
c gate 376 20 -185 0
20 -376 0
-185 -376 0
-20 185 376 0
c gate 377 -20 -22 0
-20 -377 0
-22 -377 0
20 22 377 0
c gate 378 -54 -377 0
-54 -378 0
-377 -378 0
54 377 378 0
c gate 379 -376 378 0
-376 -379 0
378 -379 0
376 -378 379 0
c gate 380 92 379 0
92 -380 0
379 -380 0
-92 -379 380 0
c gate 381 -369 374 0
-369 -381 0
374 -381 0
369 -374 381 0
c gate 382 -380 -381 0
-380 -382 0
-381 -382 0
380 381 382 0
c gate 383 -375 382 0
-375 -383 0
382 -383 0
375 -382 383 0
c gate 384 -235 306 0
-235 -384 0
306 -384 0
235 -306 384 0
c gate 385 -31 39 0
-31 -385 0
39 -385 0
31 -39 385 0
c gate 386 -306 -385 0
-306 -386 0
-385 -386 0
306 385 386 0
c gate 387 -384 -386 0
-384 -387 0
-386 -387 0
384 386 387 0
c gate 388 -339 385 0
-339 -388 0
385 -388 0
339 -385 388 0
c gate 389 -19 235 0
-19 -389 0
235 -389 0
19 -235 389 0
c gate 390 339 389 0
339 -390 0
389 -390 0
-339 -389 390 0
c gate 391 -388 -390 0
-388 -391 0
-390 -391 0
388 390 391 0
c gate 392 -387 -391 0
-387 -392 0
-391 -392 0
387 391 392 0
c gate 393 387 391 0
387 -393 0
391 -393 0
-387 -391 393 0
c gate 394 -392 -393 0
-392 -394 0
-393 -394 0
392 393 394 0
c gate 395 50 -394 0
50 -395 0
-394 -395 0
-50 394 395 0
c gate 396 -366 -370 0
-366 -396 0
-370 -396 0
366 370 396 0
c gate 397 301 366 0
301 -397 0
366 -397 0
-301 -366 397 0
c gate 398 34 -397 0
34 -398 0
-397 -398 0
-34 397 398 0
c gate 399 -396 398 0
-396 -399 0
398 -399 0
396 -398 399 0
c gate 400 260 -299 0
260 -400 0
-299 -400 0
-260 299 400 0
c gate 401 -266 -400 0
-266 -401 0
-400 -401 0
266 400 401 0
c gate 402 -37 -315 0
-37 -402 0
-315 -402 0
37 315 402 0
c gate 403 -27 236 0
-27 -403 0
236 -403 0
27 -236 403 0
c gate 404 9 39 0
9 -404 0
39 -404 0
-9 -39 404 0
c gate 405 -9 -39 0
-9 -405 0
-39 -405 0
9 39 405 0
c gate 406 -8 -405 0
-8 -406 0
-405 -406 0
8 405 406 0
c gate 407 -404 406 0
-404 -407 0
406 -407 0
404 -406 407 0
c gate 408 -403 -407 0
-403 -408 0
-407 -408 0
403 407 408 0
c gate 409 402 -408 0
402 -409 0
-408 -409 0
-402 408 409 0
c gate 410 -12 -315 0
-12 -410 0
-315 -410 0
12 315 410 0
c gate 411 14 -410 0
14 -411 0
-410 -411 0
-14 410 411 0
c gate 412 -12 -14 0
-12 -412 0
-14 -412 0
12 14 412 0
c gate 413 -2 -4 0
-2 -413 0
-4 -413 0
2 4 413 0
c gate 414 -412 413 0
-412 -414 0
413 -414 0
412 -413 414 0
c gate 415 -411 414 0
-411 -415 0
414 -415 0
411 -414 415 0
c gate 416 -409 -415 0
-409 -416 0
-415 -416 0
409 415 416 0
c gate 417 305 -416 0
305 -417 0
-416 -417 0
-305 416 417 0
c gate 418 -289 -402 0
-289 -418 0
-402 -418 0
289 402 418 0
c gate 419 37 315 0
37 -419 0
315 -419 0
-37 -315 419 0
c gate 420 289 -419 0
289 -420 0
-419 -420 0
-289 419 420 0
c gate 421 11 -12 0
11 -421 0
-12 -421 0
-11 12 421 0
c gate 422 -420 421 0
-420 -422 0
421 -422 0
420 -421 422 0
c gate 423 -418 422 0
-418 -423 0
422 -423 0
418 -422 423 0
c gate 424 -417 -423 0
-417 -424 0
-423 -424 0
417 423 424 0
c gate 425 401 -424 0
401 -425 0
-424 -425 0
-401 424 425 0
c gate 426 4 305 0
4 -426 0
305 -426 0
-4 -305 426 0
c gate 427 -11 -12 0
-11 -427 0
-12 -427 0
11 12 427 0
c gate 428 -426 427 0
-426 -428 0
427 -428 0
426 -427 428 0
c gate 429 315 -428 0
315 -429 0
-428 -429 0
-315 428 429 0
c gate 430 260 429 0
260 -430 0
429 -430 0
-260 -429 430 0
c gate 431 -425 -430 0
-425 -431 0
-430 -431 0
425 430 431 0
c gate 432 298 -431 0
298 -432 0
-431 -432 0
-298 431 432 0
c gate 433 7 -31 0
7 -433 0
-31 -433 0
-7 31 433 0
c gate 434 -50 433 0
-50 -434 0
433 -434 0
50 -433 434 0
c gate 435 -23 -35 0
-23 -435 0
-35 -435 0
23 35 435 0
c gate 436 -20 24 0
-20 -436 0
24 -436 0
20 -24 436 0
c gate 437 31 436 0
31 -437 0
436 -437 0
-31 -436 437 0
c gate 438 435 437 0
435 -438 0
437 -438 0
-435 -437 438 0
c gate 439 -434 -438 0
-434 -439 0
-438 -439 0
434 438 439 0
c gate 440 -11 -439 0
-11 -440 0
-439 -440 0
11 439 440 0
c gate 441 298 440 0
298 -441 0
440 -441 0
-298 -440 441 0
c gate 442 401 441 0
401 -442 0
441 -442 0
-401 -441 442 0
c gate 443 20 -24 0
20 -443 0
-24 -443 0
-20 24 443 0
c gate 444 36 443 0
36 -444 0
443 -444 0
-36 -443 444 0
c gate 445 -9 -19 0
-9 -445 0
-19 -445 0
9 19 445 0
c gate 446 294 445 0
294 -446 0
445 -446 0
-294 -445 446 0
c gate 447 435 446 0
435 -447 0
446 -447 0
-435 -446 447 0
c gate 448 444 447 0
444 -448 0
447 -448 0
-444 -447 448 0
c gate 449 293 448 0
293 -449 0
448 -449 0
-293 -448 449 0
c gate 450 17 315 0
17 -450 0
315 -450 0
-17 -315 450 0
c gate 451 2 8 0
2 -451 0
8 -451 0
-2 -8 451 0
c gate 452 -50 451 0
-50 -452 0
451 -452 0
50 -451 452 0
c gate 453 -450 -452 0
-450 -453 0
-452 -453 0
450 452 453 0
c gate 454 18 -453 0
18 -454 0
-453 -454 0
-18 453 454 0
c gate 455 15 34 0
15 -455 0
34 -455 0
-15 -34 455 0
c gate 456 -11 -455 0
-11 -456 0
-455 -456 0
11 455 456 0
c gate 457 315 -456 0
315 -457 0
-456 -457 0
-315 456 457 0
c gate 458 -454 -457 0
-454 -458 0
-457 -458 0
454 457 458 0
c gate 459 -449 458 0
-449 -459 0
458 -459 0
449 -458 459 0
c gate 460 -442 459 0
-442 -460 0
459 -460 0
442 -459 460 0
c gate 461 333 -460 0
333 -461 0
-460 -461 0
-333 460 461 0
c gate 462 178 200 0
178 -462 0
200 -462 0
-178 -200 462 0
c gate 463 8 405 0
8 -463 0
405 -463 0
-8 -405 463 0
c gate 464 419 -463 0
419 -464 0
-463 -464 0
-419 463 464 0
c gate 465 339 464 0
339 -465 0
464 -465 0
-339 -464 465 0
c gate 466 -462 -465 0
-462 -466 0
-465 -466 0
462 465 466 0
c gate 467 -461 466 0
-461 -467 0
466 -467 0
461 -466 467 0
c gate 468 -432 467 0
-432 -468 0
467 -468 0
432 -467 468 0
c gate 469 -399 468 0
-399 -469 0
468 -469 0
399 -468 469 0
c gate 470 -395 469 0
-395 -470 0
469 -470 0
395 -469 470 0
c gate 471 383 470 0
383 -471 0
470 -471 0
-383 -470 471 0
c gate 472 -14 16 0
-14 -472 0
16 -472 0
14 -16 472 0
c gate 473 14 31 0
14 -473 0
31 -473 0
-14 -31 473 0
c gate 474 355 473 0
355 -474 0
473 -474 0
-355 -473 474 0
c gate 475 -472 -474 0
-472 -475 0
-474 -475 0
472 474 475 0
c gate 476 50 -475 0
50 -476 0
-475 -476 0
-50 475 476 0
c gate 477 16 -50 0
16 -477 0
-50 -477 0
-16 50 477 0
c gate 478 14 477 0
14 -478 0
477 -478 0
-14 -477 478 0
c gate 479 -476 -478 0
-476 -479 0
-478 -479 0
476 478 479 0
c gate 480 333 -479 0
333 -480 0
-479 -480 0
-333 479 480 0
c gate 481 -16 50 0
-16 -481 0
50 -481 0
16 -50 481 0
c gate 482 -290 481 0
-290 -482 0
481 -482 0
290 -481 482 0
c gate 483 -355 -482 0
-355 -483 0
-482 -483 0
355 482 483 0
c gate 484 16 333 0
16 -484 0
333 -484 0
-16 -333 484 0
c gate 485 -14 -50 0
-14 -485 0
-50 -485 0
14 50 485 0
c gate 486 -484 485 0
-484 -486 0
485 -486 0
484 -485 486 0
c gate 487 -483 -486 0
-483 -487 0
-486 -487 0
483 486 487 0
c gate 488 -480 487 0
-480 -488 0
487 -488 0
480 -487 488 0
c gate 489 290 -370 0
290 -489 0
-370 -489 0
-290 370 489 0
c gate 490 291 -333 0
291 -490 0
-333 -490 0
-291 333 490 0
c gate 491 -481 -490 0
-481 -491 0
-490 -491 0
481 490 491 0
c gate 492 -489 -491 0
-489 -492 0
-491 -492 0
489 491 492 0
c gate 493 333 477 0
333 -493 0
477 -493 0
-333 -477 493 0
c gate 494 370 493 0
370 -494 0
493 -494 0
-370 -493 494 0
c gate 495 -492 -494 0
-492 -495 0
-494 -495 0
492 494 495 0
c gate 496 -488 -495 0
-488 -496 0
-495 -496 0
488 495 496 0
c gate 497 488 495 0
488 -497 0
495 -497 0
-488 -495 497 0
c gate 498 -496 -497 0
-496 -498 0
-497 -498 0
496 497 498 0
c gate 499 471 498 0
471 -499 0
498 -499 0
-471 -498 499 0
c gate 500 -352 499 0
-352 -500 0
499 -500 0
352 -499 500 0
c gate 501 -218 500 0
-218 -501 0
500 -501 0
218 -500 501 0
c gate 502 -214 501 0
-214 -502 0
501 -502 0
214 -501 502 0
c gate 503 -196 502 0
-196 -503 0
502 -503 0
196 -502 503 0
c gate 504 -194 503 0
-194 -504 0
503 -504 0
194 -503 504 0
c gate 505 -176 504 0
-176 -505 0
504 -505 0
176 -504 505 0
c gate 506 -172 505 0
-172 -506 0
505 -506 0
172 -505 506 0
c PO
-506 0
